c clasp version 2.1.1
c Reading from pb_300_04.cnf
c Solving...
s UNSATISFIABLE

c Models        : 0     
c Time          : 15.758s (Solving: 14.24s 1st Model: 0.00s Unsat: 14.24s)
c CPU Time      : 15.730s
c Choices       : 291622
c Conflicts     : 49032
c Restarts      : 102    (Average: 480.70 Last: 548)

c Variables     : 386793 (Eliminated: 121380 Frozen:    0)
c Constraints   : 474013 (Binary: 64.0% Ternary: 35.1% Other:  0.9%)
c Lemmas        : 49031  (Binary:  0.8% Ternary:  3.7% Other: 95.5%)
c   Conflict    : 49031  (Average Length: 66.1) 
c   Loop        : 0      (Average Length: 0.0) 
c   Other       : 0      (Average Length: 0.0)
c   Deleted     : 23466 
